Read MPS format model from file dat/rmp/DER_96_4096_20.mps
Reading time = 0.42 seconds
: 4192 rows, 14624 columns, 1239970 nonzeros
Gurobi Optimizer version 9.0.0 build v9.0.0rc2 (linux64)
Optimize a model with 4192 rows, 14624 columns and 1239970 nonzeros
Model fingerprint: 0xb70a1b2b
Coefficient statistics:
  Matrix range     [1e-04, 1e+01]
  Objective range  [8e-01, 1e+03]
  Bounds range     [2e+04, 2e+04]
  RHS range        [1e+00, 1e+00]
Ordering time: 0.01s

Barrier statistics:
 AA' NZ     : 3.728e+05
 Factor NZ  : 4.184e+05 (roughly 11 MBytes of memory)
 Factor Ops : 4.386e+07 (less than 1 second per iteration)
 Threads    : 1

                  Objective                Residual
Iter       Primal          Dual         Primal    Dual     Compl     Time
   0   1.74232407e+09 -2.64697359e+08  6.16e+06 1.98e-02  1.06e+06     0s
   1   5.77556502e+07 -4.70625478e+07  1.84e+05 5.46e-12  3.43e+04     0s
   2   7.04824133e+06 -1.05476215e+07  2.16e+04 2.73e-12  4.43e+03     0s
   3   1.13392200e+05 -5.12178909e+06  2.07e+02 5.46e-12  3.80e+02     1s
   4   2.90717520e+04 -3.86775046e+03  4.45e-11 3.64e-12  2.24e+00     1s
   5   2.88668094e+04  2.44885214e+04  7.21e-11 3.64e-12  2.97e-01     1s
   6   2.86407674e+04  2.67130087e+04  3.44e-11 1.82e-12  1.31e-01     1s
   7   2.85147230e+04  2.80227058e+04  3.91e-11 1.82e-12  3.34e-02     1s
   8   2.84352653e+04  2.81297067e+04  6.05e-11 1.82e-12  2.08e-02     1s
   9   2.83445971e+04  2.82733482e+04  1.71e-10 3.64e-12  4.84e-03     1s
  10   2.83330256e+04  2.82807394e+04  2.14e-10 3.64e-12  3.55e-03     1s
  11   2.83277105e+04  2.82868747e+04  2.68e-10 1.82e-12  2.77e-03     1s
  12   2.83201151e+04  2.82913127e+04  6.71e-10 1.82e-12  1.96e-03     1s
  13   2.83152900e+04  2.82946406e+04  4.57e-10 1.82e-12  1.40e-03     1s
  14   2.83126469e+04  2.82967601e+04  6.00e-10 1.82e-12  1.08e-03     2s
  15   2.83119324e+04  2.82975891e+04  6.58e-10 1.82e-12  9.74e-04     2s
  16   2.83097234e+04  2.82994634e+04  1.20e-09 1.82e-12  6.97e-04     2s
  17   2.83072571e+04  2.83010101e+04  2.52e-09 1.82e-12  4.24e-04     2s
  18   2.83051277e+04  2.83018966e+04  6.27e-09 3.64e-12  2.20e-04     2s
  19   2.83045756e+04  2.83023080e+04  3.78e-09 3.64e-12  1.54e-04     2s
  20   2.83036910e+04  2.83025881e+04  3.09e-09 1.82e-12  7.49e-05     2s
  21   2.83034351e+04  2.83027104e+04  4.24e-09 1.82e-12  4.92e-05     2s
  22   2.83032464e+04  2.83027621e+04  6.54e-09 1.82e-12  3.29e-05     2s
  23   2.83030510e+04  2.83028096e+04  7.94e-09 1.82e-12  1.64e-05     2s
  24   2.83028660e+04  2.83028383e+04  3.85e-08 3.64e-12  1.88e-06     3s
  25   2.83028460e+04  2.83028444e+04  1.74e-08 3.64e-12  1.08e-07     3s
  26   2.83028453e+04  2.83028451e+04  8.44e-08 3.64e-12  1.09e-08     3s
  27   2.83028453e+04  2.83028453e+04  2.13e-07 3.64e-12  6.55e-10     3s

Barrier solved model in 27 iterations and 2.91 seconds
Optimal objective 2.83028453e+04

Solve time: 2.915882342
Barrier iterations: 27
